ft06.dat
data;

/* These data correspond to the instance ft06 (mt06) from:

   H. Fisher, G.L. Thompson (1963), Probabilistic learning combinations
   of local job-shop scheduling rules, J.F. Muth, G.L. Thompson (eds.),
   Industrial Scheduling, Prentice Hall, Englewood Cliffs, New Jersey,
   225-251 */

/* The optimal solution is 55 */

param n := 6;

param m := 6;

param sigma :  1  2  3  4  5  6 :=
          1    3  1  2  4  6  5
          2    2  3  5  6  1  4
          3    3  4  6  1  2  5
          4    2  1  3  4  5  6
          5    3  2  5  6  1  4
          6    2  4  6  1  5  3 ;

param p     :  1  2  3  4  5  6 :=
          1    3  6  1  7  6  3
          2   10  8  5  4 10 10
          3    9  1  5  4  7  8
          4    5  5  5  3  8  9
          5    3  3  9  1  5  4
          6   10  3  1  3  4  9 ;

end;
