ft06.lp
\* Problem: jssp *\

Minimize
 obj: + z

Subject To
 ord(1,2): + x(1,1) - x(1,3) >= 1
 ord(1,3): - x(1,1) + x(1,2) >= 3
 ord(1,4): - x(1,2) + x(1,4) >= 6
 ord(1,5): - x(1,4) + x(1,6) >= 7
 ord(1,6): - x(1,6) + x(1,5) >= 3
 ord(2,2): + x(2,3) - x(2,2) >= 8
 ord(2,3): - x(2,3) + x(2,5) >= 5
 ord(2,4): - x(2,5) + x(2,6) >= 10
 ord(2,5): - x(2,6) + x(2,1) >= 10
 ord(2,6): - x(2,1) + x(2,4) >= 10
 ord(3,2): + x(3,4) - x(3,3) >= 5
 ord(3,3): - x(3,4) + x(3,6) >= 4
 ord(3,4): - x(3,6) + x(3,1) >= 8
 ord(3,5): - x(3,1) + x(3,2) >= 9
 ord(3,6): - x(3,2) + x(3,5) >= 1
 ord(4,2): + x(4,1) - x(4,2) >= 5
 ord(4,3): - x(4,1) + x(4,3) >= 5
 ord(4,4): - x(4,3) + x(4,4) >= 5
 ord(4,5): - x(4,4) + x(4,5) >= 3
 ord(4,6): - x(4,5) + x(4,6) >= 8
 ord(5,2): + x(5,2) - x(5,3) >= 9
 ord(5,3): - x(5,2) + x(5,5) >= 3
 ord(5,4): - x(5,5) + x(5,6) >= 5
 ord(5,5): - x(5,6) + x(5,1) >= 4
 ord(5,6): - x(5,1) + x(5,4) >= 3
 ord(6,2): + x(6,4) - x(6,2) >= 3
 ord(6,3): - x(6,4) + x(6,6) >= 3
 ord(6,4): - x(6,6) + x(6,1) >= 9
 ord(6,5): - x(6,1) + x(6,5) >= 10
 ord(6,6): - x(6,5) + x(6,3) >= 4
 phi(1,2,1): + x(1,1) - x(2,1) + 197 Y(1,2,1) >= 10
 phi(1,2,2): + x(1,2) - x(2,2) + 197 Y(1,2,2) >= 8
 phi(1,2,3): + x(1,3) - x(2,3) + 197 Y(1,2,3) >= 5
 phi(1,2,4): + x(1,4) - x(2,4) + 197 Y(1,2,4) >= 4
 phi(1,2,5): + x(1,5) - x(2,5) + 197 Y(1,2,5) >= 10
 phi(1,2,6): + x(1,6) - x(2,6) + 197 Y(1,2,6) >= 10
 phi(1,3,1): + x(1,1) - x(3,1) + 197 Y(1,3,1) >= 9
 phi(1,3,2): + x(1,2) - x(3,2) + 197 Y(1,3,2) >= 1
 phi(1,3,3): + x(1,3) - x(3,3) + 197 Y(1,3,3) >= 5
 phi(1,3,4): + x(1,4) - x(3,4) + 197 Y(1,3,4) >= 4
 phi(1,3,5): + x(1,5) - x(3,5) + 197 Y(1,3,5) >= 7
 phi(1,3,6): + x(1,6) - x(3,6) + 197 Y(1,3,6) >= 8
 phi(1,4,1): + x(1,1) - x(4,1) + 197 Y(1,4,1) >= 5
 phi(1,4,2): + x(1,2) - x(4,2) + 197 Y(1,4,2) >= 5
 phi(1,4,3): + x(1,3) - x(4,3) + 197 Y(1,4,3) >= 5
 phi(1,4,4): + x(1,4) - x(4,4) + 197 Y(1,4,4) >= 3
 phi(1,4,5): + x(1,5) - x(4,5) + 197 Y(1,4,5) >= 8
 phi(1,4,6): + x(1,6) - x(4,6) + 197 Y(1,4,6) >= 9
 phi(1,5,1): + x(1,1) - x(5,1) + 197 Y(1,5,1) >= 3
 phi(1,5,2): + x(1,2) - x(5,2) + 197 Y(1,5,2) >= 3
 phi(1,5,3): + x(1,3) - x(5,3) + 197 Y(1,5,3) >= 9
 phi(1,5,4): + x(1,4) - x(5,4) + 197 Y(1,5,4) >= 1
 phi(1,5,5): + x(1,5) - x(5,5) + 197 Y(1,5,5) >= 5
 phi(1,5,6): + x(1,6) - x(5,6) + 197 Y(1,5,6) >= 4
 phi(1,6,1): + x(1,1) - x(6,1) + 197 Y(1,6,1) >= 10
 phi(1,6,2): + x(1,2) - x(6,2) + 197 Y(1,6,2) >= 3
 phi(1,6,3): + x(1,3) - x(6,3) + 197 Y(1,6,3) >= 1
 phi(1,6,4): + x(1,4) - x(6,4) + 197 Y(1,6,4) >= 3
 phi(1,6,5): + x(1,5) - x(6,5) + 197 Y(1,6,5) >= 4
 phi(1,6,6): + x(1,6) - x(6,6) + 197 Y(1,6,6) >= 9
 phi(2,1,1): - x(1,1) + x(2,1) + 197 Y(2,1,1) >= 3
 phi(2,1,2): - x(1,2) + x(2,2) + 197 Y(2,1,2) >= 6
 phi(2,1,3): - x(1,3) + x(2,3) + 197 Y(2,1,3) >= 1
 phi(2,1,4): - x(1,4) + x(2,4) + 197 Y(2,1,4) >= 7
 phi(2,1,5): - x(1,5) + x(2,5) + 197 Y(2,1,5) >= 6
 phi(2,1,6): - x(1,6) + x(2,6) + 197 Y(2,1,6) >= 3
 phi(2,3,1): + x(2,1) - x(3,1) + 197 Y(2,3,1) >= 9
 phi(2,3,2): + x(2,2) - x(3,2) + 197 Y(2,3,2) >= 1
 phi(2,3,3): + x(2,3) - x(3,3) + 197 Y(2,3,3) >= 5
 phi(2,3,4): + x(2,4) - x(3,4) + 197 Y(2,3,4) >= 4
 phi(2,3,5): + x(2,5) - x(3,5) + 197 Y(2,3,5) >= 7
 phi(2,3,6): + x(2,6) - x(3,6) + 197 Y(2,3,6) >= 8
 phi(2,4,1): + x(2,1) - x(4,1) + 197 Y(2,4,1) >= 5
 phi(2,4,2): + x(2,2) - x(4,2) + 197 Y(2,4,2) >= 5
 phi(2,4,3): + x(2,3) - x(4,3) + 197 Y(2,4,3) >= 5
 phi(2,4,4): + x(2,4) - x(4,4) + 197 Y(2,4,4) >= 3
 phi(2,4,5): + x(2,5) - x(4,5) + 197 Y(2,4,5) >= 8
 phi(2,4,6): + x(2,6) - x(4,6) + 197 Y(2,4,6) >= 9
 phi(2,5,1): + x(2,1) - x(5,1) + 197 Y(2,5,1) >= 3
 phi(2,5,2): + x(2,2) - x(5,2) + 197 Y(2,5,2) >= 3
 phi(2,5,3): + x(2,3) - x(5,3) + 197 Y(2,5,3) >= 9
 phi(2,5,4): + x(2,4) - x(5,4) + 197 Y(2,5,4) >= 1
 phi(2,5,5): + x(2,5) - x(5,5) + 197 Y(2,5,5) >= 5
 phi(2,5,6): + x(2,6) - x(5,6) + 197 Y(2,5,6) >= 4
 phi(2,6,1): + x(2,1) - x(6,1) + 197 Y(2,6,1) >= 10
 phi(2,6,2): + x(2,2) - x(6,2) + 197 Y(2,6,2) >= 3
 phi(2,6,3): + x(2,3) - x(6,3) + 197 Y(2,6,3) >= 1
 phi(2,6,4): + x(2,4) - x(6,4) + 197 Y(2,6,4) >= 3
 phi(2,6,5): + x(2,5) - x(6,5) + 197 Y(2,6,5) >= 4
 phi(2,6,6): + x(2,6) - x(6,6) + 197 Y(2,6,6) >= 9
 phi(3,1,1): - x(1,1) + x(3,1) + 197 Y(3,1,1) >= 3
 phi(3,1,2): - x(1,2) + x(3,2) + 197 Y(3,1,2) >= 6
 phi(3,1,3): - x(1,3) + x(3,3) + 197 Y(3,1,3) >= 1
 phi(3,1,4): - x(1,4) + x(3,4) + 197 Y(3,1,4) >= 7
 phi(3,1,5): - x(1,5) + x(3,5) + 197 Y(3,1,5) >= 6
 phi(3,1,6): - x(1,6) + x(3,6) + 197 Y(3,1,6) >= 3
 phi(3,2,1): - x(2,1) + x(3,1) + 197 Y(3,2,1) >= 10
 phi(3,2,2): - x(2,2) + x(3,2) + 197 Y(3,2,2) >= 8
 phi(3,2,3): - x(2,3) + x(3,3) + 197 Y(3,2,3) >= 5
 phi(3,2,4): - x(2,4) + x(3,4) + 197 Y(3,2,4) >= 4
 phi(3,2,5): - x(2,5) + x(3,5) + 197 Y(3,2,5) >= 10
 phi(3,2,6): - x(2,6) + x(3,6) + 197 Y(3,2,6) >= 10
 phi(3,4,1): + x(3,1) - x(4,1) + 197 Y(3,4,1) >= 5
 phi(3,4,2): + x(3,2) - x(4,2) + 197 Y(3,4,2) >= 5
 phi(3,4,3): + x(3,3) - x(4,3) + 197 Y(3,4,3) >= 5
 phi(3,4,4): + x(3,4) - x(4,4) + 197 Y(3,4,4) >= 3
 phi(3,4,5): + x(3,5) - x(4,5) + 197 Y(3,4,5) >= 8
 phi(3,4,6): + x(3,6) - x(4,6) + 197 Y(3,4,6) >= 9
 phi(3,5,1): + x(3,1) - x(5,1) + 197 Y(3,5,1) >= 3
 phi(3,5,2): + x(3,2) - x(5,2) + 197 Y(3,5,2) >= 3
 phi(3,5,3): + x(3,3) - x(5,3) + 197 Y(3,5,3) >= 9
 phi(3,5,4): + x(3,4) - x(5,4) + 197 Y(3,5,4) >= 1
 phi(3,5,5): + x(3,5) - x(5,5) + 197 Y(3,5,5) >= 5
 phi(3,5,6): + x(3,6) - x(5,6) + 197 Y(3,5,6) >= 4
 phi(3,6,1): + x(3,1) - x(6,1) + 197 Y(3,6,1) >= 10
 phi(3,6,2): + x(3,2) - x(6,2) + 197 Y(3,6,2) >= 3
 phi(3,6,3): + x(3,3) - x(6,3) + 197 Y(3,6,3) >= 1
 phi(3,6,4): + x(3,4) - x(6,4) + 197 Y(3,6,4) >= 3
 phi(3,6,5): + x(3,5) - x(6,5) + 197 Y(3,6,5) >= 4
 phi(3,6,6): + x(3,6) - x(6,6) + 197 Y(3,6,6) >= 9
 phi(4,1,1): - x(1,1) + x(4,1) + 197 Y(4,1,1) >= 3
 phi(4,1,2): - x(1,2) + x(4,2) + 197 Y(4,1,2) >= 6
 phi(4,1,3): - x(1,3) + x(4,3) + 197 Y(4,1,3) >= 1
 phi(4,1,4): - x(1,4) + x(4,4) + 197 Y(4,1,4) >= 7
 phi(4,1,5): - x(1,5) + x(4,5) + 197 Y(4,1,5) >= 6
 phi(4,1,6): - x(1,6) + x(4,6) + 197 Y(4,1,6) >= 3
 phi(4,2,1): - x(2,1) + x(4,1) + 197 Y(4,2,1) >= 10
 phi(4,2,2): - x(2,2) + x(4,2) + 197 Y(4,2,2) >= 8
 phi(4,2,3): - x(2,3) + x(4,3) + 197 Y(4,2,3) >= 5
 phi(4,2,4): - x(2,4) + x(4,4) + 197 Y(4,2,4) >= 4
 phi(4,2,5): - x(2,5) + x(4,5) + 197 Y(4,2,5) >= 10
 phi(4,2,6): - x(2,6) + x(4,6) + 197 Y(4,2,6) >= 10
 phi(4,3,1): - x(3,1) + x(4,1) + 197 Y(4,3,1) >= 9
 phi(4,3,2): - x(3,2) + x(4,2) + 197 Y(4,3,2) >= 1
 phi(4,3,3): - x(3,3) + x(4,3) + 197 Y(4,3,3) >= 5
 phi(4,3,4): - x(3,4) + x(4,4) + 197 Y(4,3,4) >= 4
 phi(4,3,5): - x(3,5) + x(4,5) + 197 Y(4,3,5) >= 7
 phi(4,3,6): - x(3,6) + x(4,6) + 197 Y(4,3,6) >= 8
 phi(4,5,1): + x(4,1) - x(5,1) + 197 Y(4,5,1) >= 3
 phi(4,5,2): + x(4,2) - x(5,2) + 197 Y(4,5,2) >= 3
 phi(4,5,3): + x(4,3) - x(5,3) + 197 Y(4,5,3) >= 9
 phi(4,5,4): + x(4,4) - x(5,4) + 197 Y(4,5,4) >= 1
 phi(4,5,5): + x(4,5) - x(5,5) + 197 Y(4,5,5) >= 5
 phi(4,5,6): + x(4,6) - x(5,6) + 197 Y(4,5,6) >= 4
 phi(4,6,1): + x(4,1) - x(6,1) + 197 Y(4,6,1) >= 10
 phi(4,6,2): + x(4,2) - x(6,2) + 197 Y(4,6,2) >= 3
 phi(4,6,3): + x(4,3) - x(6,3) + 197 Y(4,6,3) >= 1
 phi(4,6,4): + x(4,4) - x(6,4) + 197 Y(4,6,4) >= 3
 phi(4,6,5): + x(4,5) - x(6,5) + 197 Y(4,6,5) >= 4
 phi(4,6,6): + x(4,6) - x(6,6) + 197 Y(4,6,6) >= 9
 phi(5,1,1): - x(1,1) + x(5,1) + 197 Y(5,1,1) >= 3
 phi(5,1,2): - x(1,2) + x(5,2) + 197 Y(5,1,2) >= 6
 phi(5,1,3): - x(1,3) + x(5,3) + 197 Y(5,1,3) >= 1
 phi(5,1,4): - x(1,4) + x(5,4) + 197 Y(5,1,4) >= 7
 phi(5,1,5): - x(1,5) + x(5,5) + 197 Y(5,1,5) >= 6
 phi(5,1,6): - x(1,6) + x(5,6) + 197 Y(5,1,6) >= 3
 phi(5,2,1): - x(2,1) + x(5,1) + 197 Y(5,2,1) >= 10
 phi(5,2,2): - x(2,2) + x(5,2) + 197 Y(5,2,2) >= 8
 phi(5,2,3): - x(2,3) + x(5,3) + 197 Y(5,2,3) >= 5
 phi(5,2,4): - x(2,4) + x(5,4) + 197 Y(5,2,4) >= 4
 phi(5,2,5): - x(2,5) + x(5,5) + 197 Y(5,2,5) >= 10
 phi(5,2,6): - x(2,6) + x(5,6) + 197 Y(5,2,6) >= 10
 phi(5,3,1): - x(3,1) + x(5,1) + 197 Y(5,3,1) >= 9
 phi(5,3,2): - x(3,2) + x(5,2) + 197 Y(5,3,2) >= 1
 phi(5,3,3): - x(3,3) + x(5,3) + 197 Y(5,3,3) >= 5
 phi(5,3,4): - x(3,4) + x(5,4) + 197 Y(5,3,4) >= 4
 phi(5,3,5): - x(3,5) + x(5,5) + 197 Y(5,3,5) >= 7
 phi(5,3,6): - x(3,6) + x(5,6) + 197 Y(5,3,6) >= 8
 phi(5,4,1): - x(4,1) + x(5,1) + 197 Y(5,4,1) >= 5
 phi(5,4,2): - x(4,2) + x(5,2) + 197 Y(5,4,2) >= 5
 phi(5,4,3): - x(4,3) + x(5,3) + 197 Y(5,4,3) >= 5
 phi(5,4,4): - x(4,4) + x(5,4) + 197 Y(5,4,4) >= 3
 phi(5,4,5): - x(4,5) + x(5,5) + 197 Y(5,4,5) >= 8
 phi(5,4,6): - x(4,6) + x(5,6) + 197 Y(5,4,6) >= 9
 phi(5,6,1): + x(5,1) - x(6,1) + 197 Y(5,6,1) >= 10
 phi(5,6,2): + x(5,2) - x(6,2) + 197 Y(5,6,2) >= 3
 phi(5,6,3): + x(5,3) - x(6,3) + 197 Y(5,6,3) >= 1
 phi(5,6,4): + x(5,4) - x(6,4) + 197 Y(5,6,4) >= 3
 phi(5,6,5): + x(5,5) - x(6,5) + 197 Y(5,6,5) >= 4
 phi(5,6,6): + x(5,6) - x(6,6) + 197 Y(5,6,6) >= 9
 phi(6,1,1): - x(1,1) + x(6,1) + 197 Y(6,1,1) >= 3
 phi(6,1,2): - x(1,2) + x(6,2) + 197 Y(6,1,2) >= 6
 phi(6,1,3): - x(1,3) + x(6,3) + 197 Y(6,1,3) >= 1
 phi(6,1,4): - x(1,4) + x(6,4) + 197 Y(6,1,4) >= 7
 phi(6,1,5): - x(1,5) + x(6,5) + 197 Y(6,1,5) >= 6
 phi(6,1,6): - x(1,6) + x(6,6) + 197 Y(6,1,6) >= 3
 phi(6,2,1): - x(2,1) + x(6,1) + 197 Y(6,2,1) >= 10
 phi(6,2,2): - x(2,2) + x(6,2) + 197 Y(6,2,2) >= 8
 phi(6,2,3): - x(2,3) + x(6,3) + 197 Y(6,2,3) >= 5
 phi(6,2,4): - x(2,4) + x(6,4) + 197 Y(6,2,4) >= 4
 phi(6,2,5): - x(2,5) + x(6,5) + 197 Y(6,2,5) >= 10
 phi(6,2,6): - x(2,6) + x(6,6) + 197 Y(6,2,6) >= 10
 phi(6,3,1): - x(3,1) + x(6,1) + 197 Y(6,3,1) >= 9
 phi(6,3,2): - x(3,2) + x(6,2) + 197 Y(6,3,2) >= 1
 phi(6,3,3): - x(3,3) + x(6,3) + 197 Y(6,3,3) >= 5
 phi(6,3,4): - x(3,4) + x(6,4) + 197 Y(6,3,4) >= 4
 phi(6,3,5): - x(3,5) + x(6,5) + 197 Y(6,3,5) >= 7
 phi(6,3,6): - x(3,6) + x(6,6) + 197 Y(6,3,6) >= 8
 phi(6,4,1): - x(4,1) + x(6,1) + 197 Y(6,4,1) >= 5
 phi(6,4,2): - x(4,2) + x(6,2) + 197 Y(6,4,2) >= 5
 phi(6,4,3): - x(4,3) + x(6,3) + 197 Y(6,4,3) >= 5
 phi(6,4,4): - x(4,4) + x(6,4) + 197 Y(6,4,4) >= 3
 phi(6,4,5): - x(4,5) + x(6,5) + 197 Y(6,4,5) >= 8
 phi(6,4,6): - x(4,6) + x(6,6) + 197 Y(6,4,6) >= 9
 phi(6,5,1): - x(5,1) + x(6,1) + 197 Y(6,5,1) >= 3
 phi(6,5,2): - x(5,2) + x(6,2) + 197 Y(6,5,2) >= 3
 phi(6,5,3): - x(5,3) + x(6,3) + 197 Y(6,5,3) >= 9
 phi(6,5,4): - x(5,4) + x(6,4) + 197 Y(6,5,4) >= 1
 phi(6,5,5): - x(5,5) + x(6,5) + 197 Y(6,5,5) >= 5
 phi(6,5,6): - x(5,6) + x(6,6) + 197 Y(6,5,6) >= 4
 psi(1,2,1): - x(1,1) + x(2,1) - 197 Y(1,2,1) >= -194
 psi(1,2,2): - x(1,2) + x(2,2) - 197 Y(1,2,2) >= -191
 psi(1,2,3): - x(1,3) + x(2,3) - 197 Y(1,2,3) >= -196
 psi(1,2,4): - x(1,4) + x(2,4) - 197 Y(1,2,4) >= -190
 psi(1,2,5): - x(1,5) + x(2,5) - 197 Y(1,2,5) >= -191
 psi(1,2,6): - x(1,6) + x(2,6) - 197 Y(1,2,6) >= -194
 psi(1,3,1): - x(1,1) + x(3,1) - 197 Y(1,3,1) >= -194
 psi(1,3,2): - x(1,2) + x(3,2) - 197 Y(1,3,2) >= -191
 psi(1,3,3): - x(1,3) + x(3,3) - 197 Y(1,3,3) >= -196
 psi(1,3,4): - x(1,4) + x(3,4) - 197 Y(1,3,4) >= -190
 psi(1,3,5): - x(1,5) + x(3,5) - 197 Y(1,3,5) >= -191
 psi(1,3,6): - x(1,6) + x(3,6) - 197 Y(1,3,6) >= -194
 psi(1,4,1): - x(1,1) + x(4,1) - 197 Y(1,4,1) >= -194
 psi(1,4,2): - x(1,2) + x(4,2) - 197 Y(1,4,2) >= -191
 psi(1,4,3): - x(1,3) + x(4,3) - 197 Y(1,4,3) >= -196
 psi(1,4,4): - x(1,4) + x(4,4) - 197 Y(1,4,4) >= -190
 psi(1,4,5): - x(1,5) + x(4,5) - 197 Y(1,4,5) >= -191
 psi(1,4,6): - x(1,6) + x(4,6) - 197 Y(1,4,6) >= -194
 psi(1,5,1): - x(1,1) + x(5,1) - 197 Y(1,5,1) >= -194
 psi(1,5,2): - x(1,2) + x(5,2) - 197 Y(1,5,2) >= -191
 psi(1,5,3): - x(1,3) + x(5,3) - 197 Y(1,5,3) >= -196
 psi(1,5,4): - x(1,4) + x(5,4) - 197 Y(1,5,4) >= -190
 psi(1,5,5): - x(1,5) + x(5,5) - 197 Y(1,5,5) >= -191
 psi(1,5,6): - x(1,6) + x(5,6) - 197 Y(1,5,6) >= -194
 psi(1,6,1): - x(1,1) + x(6,1) - 197 Y(1,6,1) >= -194
 psi(1,6,2): - x(1,2) + x(6,2) - 197 Y(1,6,2) >= -191
 psi(1,6,3): - x(1,3) + x(6,3) - 197 Y(1,6,3) >= -196
 psi(1,6,4): - x(1,4) + x(6,4) - 197 Y(1,6,4) >= -190
 psi(1,6,5): - x(1,5) + x(6,5) - 197 Y(1,6,5) >= -191
 psi(1,6,6): - x(1,6) + x(6,6) - 197 Y(1,6,6) >= -194
 psi(2,1,1): + x(1,1) - x(2,1) - 197 Y(2,1,1) >= -187
 psi(2,1,2): + x(1,2) - x(2,2) - 197 Y(2,1,2) >= -189
 psi(2,1,3): + x(1,3) - x(2,3) - 197 Y(2,1,3) >= -192
 psi(2,1,4): + x(1,4) - x(2,4) - 197 Y(2,1,4) >= -193
 psi(2,1,5): + x(1,5) - x(2,5) - 197 Y(2,1,5) >= -187
 psi(2,1,6): + x(1,6) - x(2,6) - 197 Y(2,1,6) >= -187
 psi(2,3,1): - x(2,1) + x(3,1) - 197 Y(2,3,1) >= -187
 psi(2,3,2): - x(2,2) + x(3,2) - 197 Y(2,3,2) >= -189
 psi(2,3,3): - x(2,3) + x(3,3) - 197 Y(2,3,3) >= -192
 psi(2,3,4): - x(2,4) + x(3,4) - 197 Y(2,3,4) >= -193
 psi(2,3,5): - x(2,5) + x(3,5) - 197 Y(2,3,5) >= -187
 psi(2,3,6): - x(2,6) + x(3,6) - 197 Y(2,3,6) >= -187
 psi(2,4,1): - x(2,1) + x(4,1) - 197 Y(2,4,1) >= -187
 psi(2,4,2): - x(2,2) + x(4,2) - 197 Y(2,4,2) >= -189
 psi(2,4,3): - x(2,3) + x(4,3) - 197 Y(2,4,3) >= -192
 psi(2,4,4): - x(2,4) + x(4,4) - 197 Y(2,4,4) >= -193
 psi(2,4,5): - x(2,5) + x(4,5) - 197 Y(2,4,5) >= -187
 psi(2,4,6): - x(2,6) + x(4,6) - 197 Y(2,4,6) >= -187
 psi(2,5,1): - x(2,1) + x(5,1) - 197 Y(2,5,1) >= -187
 psi(2,5,2): - x(2,2) + x(5,2) - 197 Y(2,5,2) >= -189
 psi(2,5,3): - x(2,3) + x(5,3) - 197 Y(2,5,3) >= -192
 psi(2,5,4): - x(2,4) + x(5,4) - 197 Y(2,5,4) >= -193
 psi(2,5,5): - x(2,5) + x(5,5) - 197 Y(2,5,5) >= -187
 psi(2,5,6): - x(2,6) + x(5,6) - 197 Y(2,5,6) >= -187
 psi(2,6,1): - x(2,1) + x(6,1) - 197 Y(2,6,1) >= -187
 psi(2,6,2): - x(2,2) + x(6,2) - 197 Y(2,6,2) >= -189
 psi(2,6,3): - x(2,3) + x(6,3) - 197 Y(2,6,3) >= -192
 psi(2,6,4): - x(2,4) + x(6,4) - 197 Y(2,6,4) >= -193
 psi(2,6,5): - x(2,5) + x(6,5) - 197 Y(2,6,5) >= -187
 psi(2,6,6): - x(2,6) + x(6,6) - 197 Y(2,6,6) >= -187
 psi(3,1,1): + x(1,1) - x(3,1) - 197 Y(3,1,1) >= -188
 psi(3,1,2): + x(1,2) - x(3,2) - 197 Y(3,1,2) >= -196
 psi(3,1,3): + x(1,3) - x(3,3) - 197 Y(3,1,3) >= -192
 psi(3,1,4): + x(1,4) - x(3,4) - 197 Y(3,1,4) >= -193
 psi(3,1,5): + x(1,5) - x(3,5) - 197 Y(3,1,5) >= -190
 psi(3,1,6): + x(1,6) - x(3,6) - 197 Y(3,1,6) >= -189
 psi(3,2,1): + x(2,1) - x(3,1) - 197 Y(3,2,1) >= -188
 psi(3,2,2): + x(2,2) - x(3,2) - 197 Y(3,2,2) >= -196
 psi(3,2,3): + x(2,3) - x(3,3) - 197 Y(3,2,3) >= -192
 psi(3,2,4): + x(2,4) - x(3,4) - 197 Y(3,2,4) >= -193
 psi(3,2,5): + x(2,5) - x(3,5) - 197 Y(3,2,5) >= -190
 psi(3,2,6): + x(2,6) - x(3,6) - 197 Y(3,2,6) >= -189
 psi(3,4,1): - x(3,1) + x(4,1) - 197 Y(3,4,1) >= -188
 psi(3,4,2): - x(3,2) + x(4,2) - 197 Y(3,4,2) >= -196
 psi(3,4,3): - x(3,3) + x(4,3) - 197 Y(3,4,3) >= -192
 psi(3,4,4): - x(3,4) + x(4,4) - 197 Y(3,4,4) >= -193
 psi(3,4,5): - x(3,5) + x(4,5) - 197 Y(3,4,5) >= -190
 psi(3,4,6): - x(3,6) + x(4,6) - 197 Y(3,4,6) >= -189
 psi(3,5,1): - x(3,1) + x(5,1) - 197 Y(3,5,1) >= -188
 psi(3,5,2): - x(3,2) + x(5,2) - 197 Y(3,5,2) >= -196
 psi(3,5,3): - x(3,3) + x(5,3) - 197 Y(3,5,3) >= -192
 psi(3,5,4): - x(3,4) + x(5,4) - 197 Y(3,5,4) >= -193
 psi(3,5,5): - x(3,5) + x(5,5) - 197 Y(3,5,5) >= -190
 psi(3,5,6): - x(3,6) + x(5,6) - 197 Y(3,5,6) >= -189
 psi(3,6,1): - x(3,1) + x(6,1) - 197 Y(3,6,1) >= -188
 psi(3,6,2): - x(3,2) + x(6,2) - 197 Y(3,6,2) >= -196
 psi(3,6,3): - x(3,3) + x(6,3) - 197 Y(3,6,3) >= -192
 psi(3,6,4): - x(3,4) + x(6,4) - 197 Y(3,6,4) >= -193
 psi(3,6,5): - x(3,5) + x(6,5) - 197 Y(3,6,5) >= -190
 psi(3,6,6): - x(3,6) + x(6,6) - 197 Y(3,6,6) >= -189
 psi(4,1,1): + x(1,1) - x(4,1) - 197 Y(4,1,1) >= -192
 psi(4,1,2): + x(1,2) - x(4,2) - 197 Y(4,1,2) >= -192
 psi(4,1,3): + x(1,3) - x(4,3) - 197 Y(4,1,3) >= -192
 psi(4,1,4): + x(1,4) - x(4,4) - 197 Y(4,1,4) >= -194
 psi(4,1,5): + x(1,5) - x(4,5) - 197 Y(4,1,5) >= -189
 psi(4,1,6): + x(1,6) - x(4,6) - 197 Y(4,1,6) >= -188
 psi(4,2,1): + x(2,1) - x(4,1) - 197 Y(4,2,1) >= -192
 psi(4,2,2): + x(2,2) - x(4,2) - 197 Y(4,2,2) >= -192
 psi(4,2,3): + x(2,3) - x(4,3) - 197 Y(4,2,3) >= -192
 psi(4,2,4): + x(2,4) - x(4,4) - 197 Y(4,2,4) >= -194
 psi(4,2,5): + x(2,5) - x(4,5) - 197 Y(4,2,5) >= -189
 psi(4,2,6): + x(2,6) - x(4,6) - 197 Y(4,2,6) >= -188
 psi(4,3,1): + x(3,1) - x(4,1) - 197 Y(4,3,1) >= -192
 psi(4,3,2): + x(3,2) - x(4,2) - 197 Y(4,3,2) >= -192
 psi(4,3,3): + x(3,3) - x(4,3) - 197 Y(4,3,3) >= -192
 psi(4,3,4): + x(3,4) - x(4,4) - 197 Y(4,3,4) >= -194
 psi(4,3,5): + x(3,5) - x(4,5) - 197 Y(4,3,5) >= -189
 psi(4,3,6): + x(3,6) - x(4,6) - 197 Y(4,3,6) >= -188
 psi(4,5,1): - x(4,1) + x(5,1) - 197 Y(4,5,1) >= -192
 psi(4,5,2): - x(4,2) + x(5,2) - 197 Y(4,5,2) >= -192
 psi(4,5,3): - x(4,3) + x(5,3) - 197 Y(4,5,3) >= -192
 psi(4,5,4): - x(4,4) + x(5,4) - 197 Y(4,5,4) >= -194
 psi(4,5,5): - x(4,5) + x(5,5) - 197 Y(4,5,5) >= -189
 psi(4,5,6): - x(4,6) + x(5,6) - 197 Y(4,5,6) >= -188
 psi(4,6,1): - x(4,1) + x(6,1) - 197 Y(4,6,1) >= -192
 psi(4,6,2): - x(4,2) + x(6,2) - 197 Y(4,6,2) >= -192
 psi(4,6,3): - x(4,3) + x(6,3) - 197 Y(4,6,3) >= -192
 psi(4,6,4): - x(4,4) + x(6,4) - 197 Y(4,6,4) >= -194
 psi(4,6,5): - x(4,5) + x(6,5) - 197 Y(4,6,5) >= -189
 psi(4,6,6): - x(4,6) + x(6,6) - 197 Y(4,6,6) >= -188
 psi(5,1,1): + x(1,1) - x(5,1) - 197 Y(5,1,1) >= -194
 psi(5,1,2): + x(1,2) - x(5,2) - 197 Y(5,1,2) >= -194
 psi(5,1,3): + x(1,3) - x(5,3) - 197 Y(5,1,3) >= -188
 psi(5,1,4): + x(1,4) - x(5,4) - 197 Y(5,1,4) >= -196
 psi(5,1,5): + x(1,5) - x(5,5) - 197 Y(5,1,5) >= -192
 psi(5,1,6): + x(1,6) - x(5,6) - 197 Y(5,1,6) >= -193
 psi(5,2,1): + x(2,1) - x(5,1) - 197 Y(5,2,1) >= -194
 psi(5,2,2): + x(2,2) - x(5,2) - 197 Y(5,2,2) >= -194
 psi(5,2,3): + x(2,3) - x(5,3) - 197 Y(5,2,3) >= -188
 psi(5,2,4): + x(2,4) - x(5,4) - 197 Y(5,2,4) >= -196
 psi(5,2,5): + x(2,5) - x(5,5) - 197 Y(5,2,5) >= -192
 psi(5,2,6): + x(2,6) - x(5,6) - 197 Y(5,2,6) >= -193
 psi(5,3,1): + x(3,1) - x(5,1) - 197 Y(5,3,1) >= -194
 psi(5,3,2): + x(3,2) - x(5,2) - 197 Y(5,3,2) >= -194
 psi(5,3,3): + x(3,3) - x(5,3) - 197 Y(5,3,3) >= -188
 psi(5,3,4): + x(3,4) - x(5,4) - 197 Y(5,3,4) >= -196
 psi(5,3,5): + x(3,5) - x(5,5) - 197 Y(5,3,5) >= -192
 psi(5,3,6): + x(3,6) - x(5,6) - 197 Y(5,3,6) >= -193
 psi(5,4,1): + x(4,1) - x(5,1) - 197 Y(5,4,1) >= -194
 psi(5,4,2): + x(4,2) - x(5,2) - 197 Y(5,4,2) >= -194
 psi(5,4,3): + x(4,3) - x(5,3) - 197 Y(5,4,3) >= -188
 psi(5,4,4): + x(4,4) - x(5,4) - 197 Y(5,4,4) >= -196
 psi(5,4,5): + x(4,5) - x(5,5) - 197 Y(5,4,5) >= -192
 psi(5,4,6): + x(4,6) - x(5,6) - 197 Y(5,4,6) >= -193
 psi(5,6,1): - x(5,1) + x(6,1) - 197 Y(5,6,1) >= -194
 psi(5,6,2): - x(5,2) + x(6,2) - 197 Y(5,6,2) >= -194
 psi(5,6,3): - x(5,3) + x(6,3) - 197 Y(5,6,3) >= -188
 psi(5,6,4): - x(5,4) + x(6,4) - 197 Y(5,6,4) >= -196
 psi(5,6,5): - x(5,5) + x(6,5) - 197 Y(5,6,5) >= -192
 psi(5,6,6): - x(5,6) + x(6,6) - 197 Y(5,6,6) >= -193
 psi(6,1,1): + x(1,1) - x(6,1) - 197 Y(6,1,1) >= -187
 psi(6,1,2): + x(1,2) - x(6,2) - 197 Y(6,1,2) >= -194
 psi(6,1,3): + x(1,3) - x(6,3) - 197 Y(6,1,3) >= -196
 psi(6,1,4): + x(1,4) - x(6,4) - 197 Y(6,1,4) >= -194
 psi(6,1,5): + x(1,5) - x(6,5) - 197 Y(6,1,5) >= -193
 psi(6,1,6): + x(1,6) - x(6,6) - 197 Y(6,1,6) >= -188
 psi(6,2,1): + x(2,1) - x(6,1) - 197 Y(6,2,1) >= -187
 psi(6,2,2): + x(2,2) - x(6,2) - 197 Y(6,2,2) >= -194
 psi(6,2,3): + x(2,3) - x(6,3) - 197 Y(6,2,3) >= -196
 psi(6,2,4): + x(2,4) - x(6,4) - 197 Y(6,2,4) >= -194
 psi(6,2,5): + x(2,5) - x(6,5) - 197 Y(6,2,5) >= -193
 psi(6,2,6): + x(2,6) - x(6,6) - 197 Y(6,2,6) >= -188
 psi(6,3,1): + x(3,1) - x(6,1) - 197 Y(6,3,1) >= -187
 psi(6,3,2): + x(3,2) - x(6,2) - 197 Y(6,3,2) >= -194
 psi(6,3,3): + x(3,3) - x(6,3) - 197 Y(6,3,3) >= -196
 psi(6,3,4): + x(3,4) - x(6,4) - 197 Y(6,3,4) >= -194
 psi(6,3,5): + x(3,5) - x(6,5) - 197 Y(6,3,5) >= -193
 psi(6,3,6): + x(3,6) - x(6,6) - 197 Y(6,3,6) >= -188
 psi(6,4,1): + x(4,1) - x(6,1) - 197 Y(6,4,1) >= -187
 psi(6,4,2): + x(4,2) - x(6,2) - 197 Y(6,4,2) >= -194
 psi(6,4,3): + x(4,3) - x(6,3) - 197 Y(6,4,3) >= -196
 psi(6,4,4): + x(4,4) - x(6,4) - 197 Y(6,4,4) >= -194
 psi(6,4,5): + x(4,5) - x(6,5) - 197 Y(6,4,5) >= -193
 psi(6,4,6): + x(4,6) - x(6,6) - 197 Y(6,4,6) >= -188
 psi(6,5,1): + x(5,1) - x(6,1) - 197 Y(6,5,1) >= -187
 psi(6,5,2): + x(5,2) - x(6,2) - 197 Y(6,5,2) >= -194
 psi(6,5,3): + x(5,3) - x(6,3) - 197 Y(6,5,3) >= -196
 psi(6,5,4): + x(5,4) - x(6,4) - 197 Y(6,5,4) >= -194
 psi(6,5,5): + x(5,5) - x(6,5) - 197 Y(6,5,5) >= -193
 psi(6,5,6): + x(5,6) - x(6,6) - 197 Y(6,5,6) >= -188
 fin(1): - x(1,5) + z >= 6
 fin(2): - x(2,4) + z >= 4
 fin(3): - x(3,5) + z >= 7
 fin(4): - x(4,6) + z >= 9
 fin(5): - x(5,4) + z >= 1
 fin(6): - x(6,3) + z >= 1

Bounds
 0 <= Y(1,2,1) <= 1
 0 <= Y(1,2,2) <= 1
 0 <= Y(1,2,3) <= 1
 0 <= Y(1,2,4) <= 1
 0 <= Y(1,2,5) <= 1
 0 <= Y(1,2,6) <= 1
 0 <= Y(1,3,1) <= 1
 0 <= Y(1,3,2) <= 1
 0 <= Y(1,3,3) <= 1
 0 <= Y(1,3,4) <= 1
 0 <= Y(1,3,5) <= 1
 0 <= Y(1,3,6) <= 1
 0 <= Y(1,4,1) <= 1
 0 <= Y(1,4,2) <= 1
 0 <= Y(1,4,3) <= 1
 0 <= Y(1,4,4) <= 1
 0 <= Y(1,4,5) <= 1
 0 <= Y(1,4,6) <= 1
 0 <= Y(1,5,1) <= 1
 0 <= Y(1,5,2) <= 1
 0 <= Y(1,5,3) <= 1
 0 <= Y(1,5,4) <= 1
 0 <= Y(1,5,5) <= 1
 0 <= Y(1,5,6) <= 1
 0 <= Y(1,6,1) <= 1
 0 <= Y(1,6,2) <= 1
 0 <= Y(1,6,3) <= 1
 0 <= Y(1,6,4) <= 1
 0 <= Y(1,6,5) <= 1
 0 <= Y(1,6,6) <= 1
 0 <= Y(2,1,1) <= 1
 0 <= Y(2,1,2) <= 1
 0 <= Y(2,1,3) <= 1
 0 <= Y(2,1,4) <= 1
 0 <= Y(2,1,5) <= 1
 0 <= Y(2,1,6) <= 1
 0 <= Y(2,3,1) <= 1
 0 <= Y(2,3,2) <= 1
 0 <= Y(2,3,3) <= 1
 0 <= Y(2,3,4) <= 1
 0 <= Y(2,3,5) <= 1
 0 <= Y(2,3,6) <= 1
 0 <= Y(2,4,1) <= 1
 0 <= Y(2,4,2) <= 1
 0 <= Y(2,4,3) <= 1
 0 <= Y(2,4,4) <= 1
 0 <= Y(2,4,5) <= 1
 0 <= Y(2,4,6) <= 1
 0 <= Y(2,5,1) <= 1
 0 <= Y(2,5,2) <= 1
 0 <= Y(2,5,3) <= 1
 0 <= Y(2,5,4) <= 1
 0 <= Y(2,5,5) <= 1
 0 <= Y(2,5,6) <= 1
 0 <= Y(2,6,1) <= 1
 0 <= Y(2,6,2) <= 1
 0 <= Y(2,6,3) <= 1
 0 <= Y(2,6,4) <= 1
 0 <= Y(2,6,5) <= 1
 0 <= Y(2,6,6) <= 1
 0 <= Y(3,1,1) <= 1
 0 <= Y(3,1,2) <= 1
 0 <= Y(3,1,3) <= 1
 0 <= Y(3,1,4) <= 1
 0 <= Y(3,1,5) <= 1
 0 <= Y(3,1,6) <= 1
 0 <= Y(3,2,1) <= 1
 0 <= Y(3,2,2) <= 1
 0 <= Y(3,2,3) <= 1
 0 <= Y(3,2,4) <= 1
 0 <= Y(3,2,5) <= 1
 0 <= Y(3,2,6) <= 1
 0 <= Y(3,4,1) <= 1
 0 <= Y(3,4,2) <= 1
 0 <= Y(3,4,3) <= 1
 0 <= Y(3,4,4) <= 1
 0 <= Y(3,4,5) <= 1
 0 <= Y(3,4,6) <= 1
 0 <= Y(3,5,1) <= 1
 0 <= Y(3,5,2) <= 1
 0 <= Y(3,5,3) <= 1
 0 <= Y(3,5,4) <= 1
 0 <= Y(3,5,5) <= 1
 0 <= Y(3,5,6) <= 1
 0 <= Y(3,6,1) <= 1
 0 <= Y(3,6,2) <= 1
 0 <= Y(3,6,3) <= 1
 0 <= Y(3,6,4) <= 1
 0 <= Y(3,6,5) <= 1
 0 <= Y(3,6,6) <= 1
 0 <= Y(4,1,1) <= 1
 0 <= Y(4,1,2) <= 1
 0 <= Y(4,1,3) <= 1
 0 <= Y(4,1,4) <= 1
 0 <= Y(4,1,5) <= 1
 0 <= Y(4,1,6) <= 1
 0 <= Y(4,2,1) <= 1
 0 <= Y(4,2,2) <= 1
 0 <= Y(4,2,3) <= 1
 0 <= Y(4,2,4) <= 1
 0 <= Y(4,2,5) <= 1
 0 <= Y(4,2,6) <= 1
 0 <= Y(4,3,1) <= 1
 0 <= Y(4,3,2) <= 1
 0 <= Y(4,3,3) <= 1
 0 <= Y(4,3,4) <= 1
 0 <= Y(4,3,5) <= 1
 0 <= Y(4,3,6) <= 1
 0 <= Y(4,5,1) <= 1
 0 <= Y(4,5,2) <= 1
 0 <= Y(4,5,3) <= 1
 0 <= Y(4,5,4) <= 1
 0 <= Y(4,5,5) <= 1
 0 <= Y(4,5,6) <= 1
 0 <= Y(4,6,1) <= 1
 0 <= Y(4,6,2) <= 1
 0 <= Y(4,6,3) <= 1
 0 <= Y(4,6,4) <= 1
 0 <= Y(4,6,5) <= 1
 0 <= Y(4,6,6) <= 1
 0 <= Y(5,1,1) <= 1
 0 <= Y(5,1,2) <= 1
 0 <= Y(5,1,3) <= 1
 0 <= Y(5,1,4) <= 1
 0 <= Y(5,1,5) <= 1
 0 <= Y(5,1,6) <= 1
 0 <= Y(5,2,1) <= 1
 0 <= Y(5,2,2) <= 1
 0 <= Y(5,2,3) <= 1
 0 <= Y(5,2,4) <= 1
 0 <= Y(5,2,5) <= 1
 0 <= Y(5,2,6) <= 1
 0 <= Y(5,3,1) <= 1
 0 <= Y(5,3,2) <= 1
 0 <= Y(5,3,3) <= 1
 0 <= Y(5,3,4) <= 1
 0 <= Y(5,3,5) <= 1
 0 <= Y(5,3,6) <= 1
 0 <= Y(5,4,1) <= 1
 0 <= Y(5,4,2) <= 1
 0 <= Y(5,4,3) <= 1
 0 <= Y(5,4,4) <= 1
 0 <= Y(5,4,5) <= 1
 0 <= Y(5,4,6) <= 1
 0 <= Y(5,6,1) <= 1
 0 <= Y(5,6,2) <= 1
 0 <= Y(5,6,3) <= 1
 0 <= Y(5,6,4) <= 1
 0 <= Y(5,6,5) <= 1
 0 <= Y(5,6,6) <= 1
 0 <= Y(6,1,1) <= 1
 0 <= Y(6,1,2) <= 1
 0 <= Y(6,1,3) <= 1
 0 <= Y(6,1,4) <= 1
 0 <= Y(6,1,5) <= 1
 0 <= Y(6,1,6) <= 1
 0 <= Y(6,2,1) <= 1
 0 <= Y(6,2,2) <= 1
 0 <= Y(6,2,3) <= 1
 0 <= Y(6,2,4) <= 1
 0 <= Y(6,2,5) <= 1
 0 <= Y(6,2,6) <= 1
 0 <= Y(6,3,1) <= 1
 0 <= Y(6,3,2) <= 1
 0 <= Y(6,3,3) <= 1
 0 <= Y(6,3,4) <= 1
 0 <= Y(6,3,5) <= 1
 0 <= Y(6,3,6) <= 1
 0 <= Y(6,4,1) <= 1
 0 <= Y(6,4,2) <= 1
 0 <= Y(6,4,3) <= 1
 0 <= Y(6,4,4) <= 1
 0 <= Y(6,4,5) <= 1
 0 <= Y(6,4,6) <= 1
 0 <= Y(6,5,1) <= 1
 0 <= Y(6,5,2) <= 1
 0 <= Y(6,5,3) <= 1
 0 <= Y(6,5,4) <= 1
 0 <= Y(6,5,5) <= 1
 0 <= Y(6,5,6) <= 1
 z free

Generals
 Y(1,2,1)
 Y(1,2,2)
 Y(1,2,3)
 Y(1,2,4)
 Y(1,2,5)
 Y(1,2,6)
 Y(1,3,1)
 Y(1,3,2)
 Y(1,3,3)
 Y(1,3,4)
 Y(1,3,5)
 Y(1,3,6)
 Y(1,4,1)
 Y(1,4,2)
 Y(1,4,3)
 Y(1,4,4)
 Y(1,4,5)
 Y(1,4,6)
 Y(1,5,1)
 Y(1,5,2)
 Y(1,5,3)
 Y(1,5,4)
 Y(1,5,5)
 Y(1,5,6)
 Y(1,6,1)
 Y(1,6,2)
 Y(1,6,3)
 Y(1,6,4)
 Y(1,6,5)
 Y(1,6,6)
 Y(2,1,1)
 Y(2,1,2)
 Y(2,1,3)
 Y(2,1,4)
 Y(2,1,5)
 Y(2,1,6)
 Y(2,3,1)
 Y(2,3,2)
 Y(2,3,3)
 Y(2,3,4)
 Y(2,3,5)
 Y(2,3,6)
 Y(2,4,1)
 Y(2,4,2)
 Y(2,4,3)
 Y(2,4,4)
 Y(2,4,5)
 Y(2,4,6)
 Y(2,5,1)
 Y(2,5,2)
 Y(2,5,3)
 Y(2,5,4)
 Y(2,5,5)
 Y(2,5,6)
 Y(2,6,1)
 Y(2,6,2)
 Y(2,6,3)
 Y(2,6,4)
 Y(2,6,5)
 Y(2,6,6)
 Y(3,1,1)
 Y(3,1,2)
 Y(3,1,3)
 Y(3,1,4)
 Y(3,1,5)
 Y(3,1,6)
 Y(3,2,1)
 Y(3,2,2)
 Y(3,2,3)
 Y(3,2,4)
 Y(3,2,5)
 Y(3,2,6)
 Y(3,4,1)
 Y(3,4,2)
 Y(3,4,3)
 Y(3,4,4)
 Y(3,4,5)
 Y(3,4,6)
 Y(3,5,1)
 Y(3,5,2)
 Y(3,5,3)
 Y(3,5,4)
 Y(3,5,5)
 Y(3,5,6)
 Y(3,6,1)
 Y(3,6,2)
 Y(3,6,3)
 Y(3,6,4)
 Y(3,6,5)
 Y(3,6,6)
 Y(4,1,1)
 Y(4,1,2)
 Y(4,1,3)
 Y(4,1,4)
 Y(4,1,5)
 Y(4,1,6)
 Y(4,2,1)
 Y(4,2,2)
 Y(4,2,3)
 Y(4,2,4)
 Y(4,2,5)
 Y(4,2,6)
 Y(4,3,1)
 Y(4,3,2)
 Y(4,3,3)
 Y(4,3,4)
 Y(4,3,5)
 Y(4,3,6)
 Y(4,5,1)
 Y(4,5,2)
 Y(4,5,3)
 Y(4,5,4)
 Y(4,5,5)
 Y(4,5,6)
 Y(4,6,1)
 Y(4,6,2)
 Y(4,6,3)
 Y(4,6,4)
 Y(4,6,5)
 Y(4,6,6)
 Y(5,1,1)
 Y(5,1,2)
 Y(5,1,3)
 Y(5,1,4)
 Y(5,1,5)
 Y(5,1,6)
 Y(5,2,1)
 Y(5,2,2)
 Y(5,2,3)
 Y(5,2,4)
 Y(5,2,5)
 Y(5,2,6)
 Y(5,3,1)
 Y(5,3,2)
 Y(5,3,3)
 Y(5,3,4)
 Y(5,3,5)
 Y(5,3,6)
 Y(5,4,1)
 Y(5,4,2)
 Y(5,4,3)
 Y(5,4,4)
 Y(5,4,5)
 Y(5,4,6)
 Y(5,6,1)
 Y(5,6,2)
 Y(5,6,3)
 Y(5,6,4)
 Y(5,6,5)
 Y(5,6,6)
 Y(6,1,1)
 Y(6,1,2)
 Y(6,1,3)
 Y(6,1,4)
 Y(6,1,5)
 Y(6,1,6)
 Y(6,2,1)
 Y(6,2,2)
 Y(6,2,3)
 Y(6,2,4)
 Y(6,2,5)
 Y(6,2,6)
 Y(6,3,1)
 Y(6,3,2)
 Y(6,3,3)
 Y(6,3,4)
 Y(6,3,5)
 Y(6,3,6)
 Y(6,4,1)
 Y(6,4,2)
 Y(6,4,3)
 Y(6,4,4)
 Y(6,4,5)
 Y(6,4,6)
 Y(6,5,1)
 Y(6,5,2)
 Y(6,5,3)
 Y(6,5,4)
 Y(6,5,5)
 Y(6,5,6)

End
